11,6	0,0	10,3	6,4	0,0	0,0	0,0	0,0	0,0	16,5
7,4	14,1	0,0	10,8	19,2	0,0	0,0	5,7	0,0	0,0
0,0	0,0	12,0	0,0	18,9	19,1	0,0	0,0	19,3	0,0
12,7	0,0	11,6	0,0	0,0	0,0	12,5	0,0	0,0	0,0
0,0	7,1	0,0	15,7	11,3	0,0	0,0	9,6	0,0	0,0
0,0	18,8	8,1	0,0	15,2	11,9	0,0	0,0	15,8	0,0
0,0	11,0	0,0	12,8	0,0	0,0	6,4	0,0	0,0	17,5
10,6	0,0	19,5	0,0	0,0	0,0	0,0	0,0	0,0	11,4
0,0	11,9	0,0	11,0	7,5	0,0	0,0	5,4	0,0	0,0
0,0	0,0	18,4	0,0	0,0	12,6	15,8	0,0	0,0	10,7
									
3,0	4,2	4,0	3,0	3,1	3,1	2,8	3,1	2,9	3,0
